NAME : Unnamed.828.tour
COMMENT : Length = 828
COMMENT : Found by LKH [Keld Helsgaun] Wed Oct 22 13:40:33 2014
TYPE : TOUR
DIMENSION : 102
TOUR_SECTION
1
58
75
56
66
60
59
52
69
34
32
27
14
28
19
20
31
44
29
26
33
23
45
37
40
42
17
46
36
43
39
35
74
73
101
54
83
98
99
89
85
77
81
22
25
24
47
15
30
16
38
21
18
41
82
86
88
95
94
87
84
97
90
96
91
92
78
80
79
49
70
67
61
53
68
50
76
62
51
48
64
10
7
9
2
3
5
8
102
6
13
12
4
11
55
57
100
93
72
63
65
71
-1
EOF
